\ This file was automatically generated by Zimpl
\ var x1 >= 0;
\ var x2 >= 0;
\ maximize Z:     6*x1 + 3*x2;
\ subto r1:     2*x1 + 3*x2 <= 28;
\ subto r2:     2*x1 + 5*x2 <= 42;
\ subto r3:     1*x1 - 1*x2 <= 0;
\Problem name: pp
Maximize
 Z:  +6 x1 +3 x2
Subject to
 r1_1:
  +3 x2 +2 x1 <= 28
 r2_1:
  +5 x2 +2 x1 <= 42
 r3_1:
  - x2 + x1 <= 0
Bounds
 0 <= x1 <= +inf
 0 <= x2 <= +inf
End
